(set-option :produce-models true); benchmark generated from python API
(set-info :status unknown)
(declare-fun l_0_0_9 () Real)
(declare-fun l_0_0_8 () Real)
(declare-fun l_0_0_3 () Real)
(declare-fun l_0_0_2 () Real)
(declare-fun _a_0_ () Real)
(declare-fun l_0_0_5 () Real)
(declare-fun l_0_0_4 () Real)
(declare-fun l_0_0_11 () Real)
(declare-fun l_0_0_10 () Real)
(declare-fun _a_1_ () Real)
(declare-fun l_0_0_7 () Real)
(declare-fun l_0_0_1 () Real)
(declare-fun _a_2_ () Real)
(declare-fun l_0_0_6 () Real)
(declare-fun l_0_0_12 () Real)
(declare-fun _a_3_ () Real)
(declare-fun _a_4_ () Real)
(declare-fun l_0_1_9 () Real)
(declare-fun l_0_1_8 () Real)
(declare-fun l_0_1_15 () Real)
(declare-fun l_0_1_14 () Real)
(declare-fun l_0_1_3 () Real)
(declare-fun l_0_1_2 () Real)
(declare-fun l_0_1_18 () Real)
(declare-fun l_0_1_17 () Real)
(declare-fun l_0_1_16 () Real)
(declare-fun l_0_1_12 () Real)
(declare-fun l_0_1_11 () Real)
(declare-fun l_0_1_10 () Real)
(declare-fun l_0_1_5 () Real)
(declare-fun l_0_1_4 () Real)
(declare-fun l_0_1_6 () Real)
(declare-fun l_0_1_7 () Real)
(declare-fun l_0_1_13 () Real)
(declare-fun l_0_1_1 () Real)
(declare-fun l_0_2_9 () Real)
(declare-fun l_0_2_8 () Real)
(declare-fun l_0_2_15 () Real)
(declare-fun l_0_2_14 () Real)
(declare-fun l_0_2_3 () Real)
(declare-fun l_0_2_2 () Real)
(declare-fun l_0_2_17 () Real)
(declare-fun l_0_2_16 () Real)
(declare-fun l_0_2_11 () Real)
(declare-fun l_0_2_10 () Real)
(declare-fun l_0_2_5 () Real)
(declare-fun l_0_2_4 () Real)
(declare-fun l_0_2_7 () Real)
(declare-fun l_0_2_13 () Real)
(declare-fun l_0_2_1 () Real)
(declare-fun l_0_2_18 () Real)
(declare-fun l_0_2_12 () Real)
(declare-fun l_0_2_6 () Real)
(assert
 (let ((?x67 (* l_0_0_9 l_0_0_9)))
 (let ((?x65 (* l_0_0_8 l_0_0_8)))
 (let ((?x64 (- (- _a_0_ (* (* (/ 1.0 4.0) l_0_0_2) l_0_0_2)) (* (* (/ 1.0 4.0) l_0_0_3) l_0_0_3))))
 (= (- (- ?x64 ?x65) ?x67) 0.0)))))
(assert
 (let ((?x116 (- (- _a_1_ (* (* 2.0 l_0_0_10) l_0_0_8)) (* (* 2.0 l_0_0_11) l_0_0_9))))
 (let ((?x123 (- (- ?x116 (* (* (/ 1.0 2.0) l_0_0_2) l_0_0_4)) (* (* (/ 1.0 2.0) l_0_0_3) l_0_0_5))))
 (= ?x123 0.0))))
(assert
 (let ((?x157 (- (- _a_2_ (* (* (/ 1.0 2.0) l_0_0_1) l_0_0_2)) (* (* 2.0 l_0_0_7) l_0_0_8))))
 (= ?x157 0.0)))
(assert
 (let ((?x97 (* l_0_0_3 l_0_0_3)))
 (let ((?x89 (* l_0_0_2 l_0_0_2)))
 (let ((?x176 (* l_0_0_12 l_0_0_12)))
 (let ((?x177 (- (- (- _a_3_ (* l_0_0_10 l_0_0_10)) (* l_0_0_11 l_0_0_11)) ?x176)))
 (let ((?x185 (- (- (+ (+ ?x177 ?x89) ?x97) (* (* (/ 1.0 4.0) l_0_0_4) l_0_0_4)) (* (* (/ 1.0 4.0) l_0_0_5) l_0_0_5))))
 (= (- ?x185 (* (* (/ 1.0 4.0) l_0_0_6) l_0_0_6)) 0.0)))))))
(assert
 (let ((?x223 (* l_0_0_7 l_0_0_7)))
 (let ((?x97 (* l_0_0_3 l_0_0_3)))
 (let ((?x89 (* l_0_0_2 l_0_0_2)))
 (let ((?x224 (- (+ (+ (- _a_4_ (* (* (/ 1.0 4.0) l_0_0_1) l_0_0_1)) ?x89) ?x97) ?x223)))
 (= ?x224 0.0))))))
(assert
 (let ((?x240 (- (* (* (- (/ 1.0 2.0)) l_0_0_1) l_0_0_4) (* (* 2.0 l_0_0_10) l_0_0_7))))
 (= ?x240 0.0)))
(assert
 (let ((?x211 (* l_0_0_6 l_0_0_6)))
 (let ((?x205 (* l_0_0_5 l_0_0_5)))
 (= (+ (+ (+ (* l_0_0_1 l_0_0_1) (* l_0_0_4 l_0_0_4)) ?x205) ?x211) 0.0))))
(assert
 (= (* (* 2.0 l_0_0_1) l_0_0_2) 0.0))
(assert
 (= (* (* 2.0 l_0_0_1) l_0_0_4) 0.0))
(assert
 (let ((?x270 (+ (* (* 2.0 l_0_0_2) l_0_0_4) (* (* 2.0 l_0_0_3) l_0_0_5))))
 (= ?x270 0.0)))
(assert
 (let ((?x211 (* l_0_0_6 l_0_0_6)))
 (= (+ (+ (* l_0_0_4 l_0_0_4) (* l_0_0_5 l_0_0_5)) ?x211) 0.0)))
(assert
 (let ((?x226 (* l_0_0_1 l_0_0_1)))
 (= ?x226 0.0)))
(assert
 (= (* (* 2.0 l_0_0_1) l_0_0_2) 0.0))
(assert
 (= (* (* 2.0 l_0_0_1) l_0_0_4) 0.0))
(assert
 (let ((?x270 (+ (* (* 2.0 l_0_0_2) l_0_0_4) (* (* 2.0 l_0_0_3) l_0_0_5))))
 (= ?x270 0.0)))
(assert
 (>= l_0_0_1 0.0))
(assert
 (>= l_0_0_3 0.0))
(assert
 (>= l_0_0_6 0.0))
(assert
 (>= l_0_0_7 0.0))
(assert
 (>= l_0_0_9 0.0))
(assert
 (>= l_0_0_12 0.0))
(assert
 (let ((?x295 (* l_0_1_15 l_0_1_15)))
 (let ((?x293 (* l_0_1_14 l_0_1_14)))
 (let ((?x294 (- (* (- _a_0_) (+ (* l_0_1_2 l_0_1_2) (* l_0_1_3 l_0_1_3))) ?x293)))
 (let ((?x303 (+ (+ (- ?x294 ?x295) (* 3.0 (* l_0_1_8 l_0_1_8))) (* 3.0 (* l_0_1_9 l_0_1_9)))))
 (= (+ ?x303 1.0) 0.0))))))
(assert
 (let ((?x301 (* l_0_1_9 l_0_1_9)))
 (let ((?x297 (* l_0_1_8 l_0_1_8)))
 (let ((?x352 (* l_0_1_18 l_0_1_18)))
 (let ((?x350 (* l_0_1_17 l_0_1_17)))
 (let ((?x348 (* l_0_1_16 l_0_1_16)))
 (let ((?x345 (* l_0_1_12 l_0_1_12)))
 (let ((?x346 (* 3.0 ?x345)))
 (let ((?x342 (* l_0_1_11 l_0_1_11)))
 (let ((?x343 (* 3.0 ?x342)))
 (let ((?x339 (* l_0_1_10 l_0_1_10)))
 (let ((?x340 (* 3.0 ?x339)))
 (let ((?x334 (+ (* (* 2.0 l_0_1_2) l_0_1_4) (* (* 2.0 l_0_1_3) l_0_1_5))))
 (let ((?x327 (* l_0_1_6 l_0_1_6)))
 (let ((?x328 (+ (+ (* l_0_1_4 l_0_1_4) (* l_0_1_5 l_0_1_5)) ?x327)))
 (let ((?x288 (- _a_0_)))
 (let ((?x338 (- (- (* ?x288 ?x328) (* _a_1_ ?x334)) (* _a_3_ (+ (* l_0_1_2 l_0_1_2) (* l_0_1_3 l_0_1_3))))))
 (let ((?x354 (- (- (- (- (+ (+ (+ ?x338 ?x340) ?x343) ?x346) ?x348) ?x350) ?x352) ?x297)))
 (= (- (- ?x354 ?x301) 1.0) 0.0)))))))))))))))))))
(assert
 (let ((?x426 (- (* (* (* (- 2.0) _a_0_) l_0_1_1) l_0_1_2) (* _a_2_ (+ (* l_0_1_2 l_0_1_2) (* l_0_1_3 l_0_1_3))))))
 (let ((?x433 (+ (- ?x426 (* (* 2.0 l_0_1_13) l_0_1_14)) (* (* 6.0 l_0_1_7) l_0_1_8))))
 (= (- ?x433 2.0) 0.0))))
(assert
 (let ((?x301 (* l_0_1_9 l_0_1_9)))
 (let ((?x297 (* l_0_1_8 l_0_1_8)))
 (let ((?x477 (* l_0_1_7 l_0_1_7)))
 (let ((?x478 (* 3.0 ?x477)))
 (let ((?x475 (* l_0_1_13 l_0_1_13)))
 (let ((?x472 (- (* (* (- _a_0_) l_0_1_1) l_0_1_1) (* (* (* 2.0 _a_2_) l_0_1_1) l_0_1_2))))
 (let ((?x474 (- ?x472 (* _a_4_ (+ (* l_0_1_2 l_0_1_2) (* l_0_1_3 l_0_1_3))))))
 (= (- (- (+ (- ?x474 ?x475) ?x478) ?x297) ?x301) 0.0)))))))))
(assert
 (let ((?x334 (+ (* (* 2.0 l_0_1_2) l_0_1_4) (* (* 2.0 l_0_1_3) l_0_1_5))))
 (let ((?x518 (- (* (* (* (- 2.0) _a_0_) l_0_1_1) l_0_1_4) (* (* (* 2.0 _a_1_) l_0_1_1) l_0_1_2))))
 (let ((?x525 (- (+ (- ?x518 (* _a_2_ ?x334)) (* (* 6.0 l_0_1_10) l_0_1_7)) (* (* 2.0 l_0_1_13) l_0_1_16))))
 (= ?x525 0.0)))))
(assert
 (let ((?x334 (+ (* (* 2.0 l_0_1_2) l_0_1_4) (* (* 2.0 l_0_1_3) l_0_1_5))))
 (let ((?x288 (- _a_0_)))
 (let ((?x570 (- (* ?x288 ?x334) (* _a_1_ (+ (* l_0_1_2 l_0_1_2) (* l_0_1_3 l_0_1_3))))))
 (let ((?x575 (+ (+ ?x570 (* (* 6.0 l_0_1_10) l_0_1_8)) (* (* 6.0 l_0_1_11) l_0_1_9))))
 (let ((?x581 (- (- ?x575 (* (* 2.0 l_0_1_14) l_0_1_16)) (* (* 2.0 l_0_1_15) l_0_1_17))))
 (= ?x581 0.0)))))))
(assert
 (let ((?x632 (* (* 2.0 l_0_1_11) l_0_1_9)))
 (let ((?x628 (* 2.0 l_0_1_10)))
 (let ((?x629 (* ?x628 l_0_1_8)))
 (let ((?x334 (+ (* (* 2.0 l_0_1_2) l_0_1_4) (* (* 2.0 l_0_1_3) l_0_1_5))))
 (let ((?x625 (- (* (* (- _a_1_) l_0_1_1) l_0_1_1) (* (* (* 2.0 _a_2_) l_0_1_1) l_0_1_4))))
 (= (- (- (- ?x625 (* _a_4_ ?x334)) ?x629) ?x632) 0.0)))))))
(assert
 (let ((?x685 (* (* 2.0 l_0_1_7) l_0_1_8)))
 (let ((?x327 (* l_0_1_6 l_0_1_6)))
 (let ((?x328 (+ (+ (* l_0_1_4 l_0_1_4) (* l_0_1_5 l_0_1_5)) ?x327)))
 (let ((?x683 (- (- (* (* (* (- 2.0) _a_1_) l_0_1_1) l_0_1_4) (* _a_2_ ?x328)) (* (* (* 2.0 _a_3_) l_0_1_1) l_0_1_2))))
 (= (- ?x683 ?x685) 0.0))))))
(assert
 (let ((?x632 (* (* 2.0 l_0_1_11) l_0_1_9)))
 (let ((?x628 (* 2.0 l_0_1_10)))
 (let ((?x629 (* ?x628 l_0_1_8)))
 (let ((?x334 (+ (* (* 2.0 l_0_1_2) l_0_1_4) (* (* 2.0 l_0_1_3) l_0_1_5))))
 (let ((?x327 (* l_0_1_6 l_0_1_6)))
 (let ((?x328 (+ (+ (* l_0_1_4 l_0_1_4) (* l_0_1_5 l_0_1_5)) ?x327)))
 (let ((?x621 (- _a_1_)))
 (= (- (- (- (* ?x621 ?x328) (* _a_3_ ?x334)) ?x629) ?x632) 0.0)))))))))
(assert
 (let ((?x685 (* (* 2.0 l_0_1_7) l_0_1_8)))
 (let ((?x762 (- (* (* (- _a_2_) l_0_1_1) l_0_1_1) (* (* (* 2.0 _a_4_) l_0_1_1) l_0_1_2))))
 (= (- ?x762 ?x685) 0.0))))
(assert
 (let ((?x477 (* l_0_1_7 l_0_1_7)))
 (let ((?x345 (* l_0_1_12 l_0_1_12)))
 (let ((?x342 (* l_0_1_11 l_0_1_11)))
 (let ((?x339 (* l_0_1_10 l_0_1_10)))
 (let ((?x327 (* l_0_1_6 l_0_1_6)))
 (let ((?x328 (+ (+ (* l_0_1_4 l_0_1_4) (* l_0_1_5 l_0_1_5)) ?x327)))
 (let ((?x783 (- (- (* (* (- _a_3_) l_0_1_1) l_0_1_1) (* _a_4_ ?x328)) ?x339)))
 (= (- (- (- ?x783 ?x342) ?x345) ?x477) 0.0)))))))))
(assert
 (let ((?x628 (* 2.0 l_0_1_10)))
 (let ((?x823 (* ?x628 l_0_1_7)))
 (= (- (* (* (* (- 2.0) _a_3_) l_0_1_1) l_0_1_4) ?x823) 0.0))))
(assert
 (let ((?x345 (* l_0_1_12 l_0_1_12)))
 (let ((?x342 (* l_0_1_11 l_0_1_11)))
 (let ((?x339 (* l_0_1_10 l_0_1_10)))
 (let ((?x327 (* l_0_1_6 l_0_1_6)))
 (let ((?x328 (+ (+ (* l_0_1_4 l_0_1_4) (* l_0_1_5 l_0_1_5)) ?x327)))
 (let ((?x778 (- _a_3_)))
 (= (- (- (- (* ?x778 ?x328) ?x339) ?x342) ?x345) 0.0))))))))
(assert
 (= (- (* (* (- _a_4_) l_0_1_1) l_0_1_1) (* l_0_1_7 l_0_1_7)) 0.0))
(assert
 (let ((?x628 (* 2.0 l_0_1_10)))
 (let ((?x823 (* ?x628 l_0_1_7)))
 (= (- (* (* (* (- 2.0) _a_4_) l_0_1_1) l_0_1_4) ?x823) 0.0))))
(assert
 (>= l_0_1_1 0.0))
(assert
 (>= l_0_1_3 0.0))
(assert
 (>= l_0_1_6 0.0))
(assert
 (>= l_0_1_7 0.0))
(assert
 (>= l_0_1_9 0.0))
(assert
 (>= l_0_1_12 0.0))
(assert
 (>= l_0_1_13 0.0))
(assert
 (>= l_0_1_15 0.0))
(assert
 (>= l_0_1_18 0.0))
(assert
 (let ((?x896 (* l_0_2_15 l_0_2_15)))
 (let ((?x894 (* l_0_2_14 l_0_2_14)))
 (let ((?x893 (+ (* (- _a_0_) (+ (* l_0_2_2 l_0_2_2) (* l_0_2_3 l_0_2_3))) _a_0_)))
 (let ((?x903 (- (- (- (- ?x893 ?x894) ?x896) (* (* 3.0 l_0_2_8) l_0_2_8)) (* (* 3.0 l_0_2_9) l_0_2_9))))
 (= ?x903 0.0))))))
(assert
 (let ((?x942 (* (/ 479.0 500.0) _a_2_)))
 (let ((?x939 (* (/ 9.0 10.0) _a_1_)))
 (let ((?x934 (+ (* (* 2.0 l_0_2_2) l_0_2_4) (* (* 2.0 l_0_2_3) l_0_2_5))))
 (let ((?x288 (- _a_0_)))
 (let ((?x937 (- (* ?x288 ?x934) (* _a_1_ (+ (* l_0_2_2 l_0_2_2) (* l_0_2_3 l_0_2_3))))))
 (let ((?x949 (- (- (+ (+ ?x937 ?x939) ?x942) (* (* 6.0 l_0_2_10) l_0_2_8)) (* (* 6.0 l_0_2_11) l_0_2_9))))
 (let ((?x955 (- (- ?x949 (* (* 2.0 l_0_2_14) l_0_2_16)) (* (* 2.0 l_0_2_15) l_0_2_17))))
 (= ?x955 0.0)))))))))
(assert
 (let ((?x1009 (* (/ 21.0 200.0) _a_2_)))
 (let ((?x1007 (- (* (* (* (- 2.0) _a_0_) l_0_2_1) l_0_2_2) (* _a_2_ (+ (* l_0_2_2 l_0_2_2) (* l_0_2_3 l_0_2_3))))))
 (let ((?x1016 (- (- (- ?x1007 ?x1009) (* (* 2.0 l_0_2_13) l_0_2_14)) (* (* 6.0 l_0_2_7) l_0_2_8))))
 (= ?x1016 0.0)))))
(assert
 (let ((?x923 (* l_0_2_9 l_0_2_9)))
 (let ((?x917 (* l_0_2_8 l_0_2_8)))
 (let ((?x1084 (* l_0_2_18 l_0_2_18)))
 (let ((?x1082 (* l_0_2_17 l_0_2_17)))
 (let ((?x1080 (* l_0_2_16 l_0_2_16)))
 (let ((?x1069 (* (/ 229441.0 250000.0) _a_4_)))
 (let ((?x1066 (* (/ 81.0 100.0) _a_3_)))
 (let ((?x1061 (* (/ 23.0 100.0) _a_2_)))
 (let ((?x934 (+ (* (* 2.0 l_0_2_2) l_0_2_4) (* (* 2.0 l_0_2_3) l_0_2_5))))
 (let ((?x1055 (* l_0_2_6 l_0_2_6)))
 (let ((?x1056 (+ (+ (* l_0_2_4 l_0_2_4) (* l_0_2_5 l_0_2_5)) ?x1055)))
 (let ((?x288 (- _a_0_)))
 (let ((?x1064 (- (- (- (* ?x288 ?x1056) (* _a_1_ ?x934)) ?x1061) (* _a_3_ (+ (* l_0_2_2 l_0_2_2) (* l_0_2_3 l_0_2_3))))))
 (let ((?x1076 (- (- (+ (+ ?x1064 ?x1066) ?x1069) (* (* 3.0 l_0_2_10) l_0_2_10)) (* (* 3.0 l_0_2_11) l_0_2_11))))
 (let ((?x1085 (- (- (- (- ?x1076 (* (* 3.0 l_0_2_12) l_0_2_12)) ?x1080) ?x1082) ?x1084)))
 (= (+ (+ ?x1085 ?x917) ?x923) 0.0)))))))))))))))))
(assert
 (let ((?x1177 (* (/ 10059.0 50000.0) _a_4_)))
 (let ((?x1174 (* (/ 1.0 20.0) _a_2_)))
 (let ((?x934 (+ (* (* 2.0 l_0_2_2) l_0_2_4) (* (* 2.0 l_0_2_3) l_0_2_5))))
 (let ((?x1170 (- (* (* (* (- 2.0) _a_0_) l_0_2_1) l_0_2_4) (* (* (* 2.0 _a_1_) l_0_2_1) l_0_2_2))))
 (let ((?x1180 (- (- (- (- ?x1170 (* _a_2_ ?x934)) ?x1174) ?x1177) (* (* 6.0 l_0_2_10) l_0_2_7))))
 (= (- ?x1180 (* (* 2.0 l_0_2_13) l_0_2_16)) 0.0)))))))
(assert
 (let ((?x1249 (* (* 2.0 l_0_2_11) l_0_2_9)))
 (let ((?x1245 (* 2.0 l_0_2_10)))
 (let ((?x1246 (* ?x1245 l_0_2_8)))
 (let ((?x1243 (* (/ 11017.0 25000.0) _a_4_)))
 (let ((?x934 (+ (* (* 2.0 l_0_2_2) l_0_2_4) (* (* 2.0 l_0_2_3) l_0_2_5))))
 (let ((?x1238 (* (/ 1.0 10.0) _a_2_)))
 (let ((?x1055 (* l_0_2_6 l_0_2_6)))
 (let ((?x1056 (+ (+ (* l_0_2_4 l_0_2_4) (* l_0_2_5 l_0_2_5)) ?x1055)))
 (let ((?x621 (- _a_1_)))
 (let ((?x1250 (+ (+ (- (- (- (* ?x621 ?x1056) ?x1238) (* _a_3_ ?x934)) ?x1243) ?x1246) ?x1249)))
 (= ?x1250 0.0))))))))))))
(assert
 (let ((?x1302 (* (* 2.0 l_0_2_7) l_0_2_8)))
 (let ((?x1299 (* (/ 19.0 400.0) _a_4_)))
 (let ((?x1055 (* l_0_2_6 l_0_2_6)))
 (let ((?x1056 (+ (+ (* l_0_2_4 l_0_2_4) (* l_0_2_5 l_0_2_5)) ?x1055)))
 (let ((?x1297 (- (- (* (* (* (- 2.0) _a_1_) l_0_2_1) l_0_2_4) (* _a_2_ ?x1056)) (* (* (* 2.0 _a_3_) l_0_2_1) l_0_2_2))))
 (= (+ (- ?x1297 ?x1299) ?x1302) 0.0)))))))
(assert
 (let ((?x1144 (* l_0_2_12 l_0_2_12)))
 (let ((?x1138 (* l_0_2_11 l_0_2_11)))
 (let ((?x1132 (* l_0_2_10 l_0_2_10)))
 (let ((?x1339 (* (/ 1387.0 10000.0) _a_4_)))
 (let ((?x1055 (* l_0_2_6 l_0_2_6)))
 (let ((?x1056 (+ (+ (* l_0_2_4 l_0_2_4) (* l_0_2_5 l_0_2_5)) ?x1055)))
 (let ((?x778 (- _a_3_)))
 (= (+ (+ (+ (- (* ?x778 ?x1056) ?x1339) ?x1132) ?x1138) ?x1144) 0.0)))))))))
(assert
 (let ((?x923 (* l_0_2_9 l_0_2_9)))
 (let ((?x917 (* l_0_2_8 l_0_2_8)))
 (let ((?x1372 (* l_0_2_13 l_0_2_13)))
 (let ((?x1370 (* (/ 441.0 40000.0) _a_4_)))
 (let ((?x1366 (- (* (* (- _a_0_) l_0_2_1) l_0_2_1) (* (* (* 2.0 _a_2_) l_0_2_1) l_0_2_2))))
 (let ((?x1368 (- ?x1366 (* _a_4_ (+ (* l_0_2_2 l_0_2_2) (* l_0_2_3 l_0_2_3))))))
 (let ((?x1377 (+ (- (- (+ ?x1368 ?x1370) ?x1372) (* (* 3.0 l_0_2_7) l_0_2_7)) ?x917)))
 (= (+ ?x1377 ?x923) 0.0)))))))))
(assert
 (let ((?x1249 (* (* 2.0 l_0_2_11) l_0_2_9)))
 (let ((?x1245 (* 2.0 l_0_2_10)))
 (let ((?x1246 (* ?x1245 l_0_2_8)))
 (let ((?x1419 (* (/ 21.0 2000.0) _a_4_)))
 (let ((?x934 (+ (* (* 2.0 l_0_2_2) l_0_2_4) (* (* 2.0 l_0_2_3) l_0_2_5))))
 (let ((?x1415 (- (* (* (- _a_1_) l_0_2_1) l_0_2_1) (* (* (* 2.0 _a_2_) l_0_2_1) l_0_2_4))))
 (= (+ (+ (+ (- ?x1415 (* _a_4_ ?x934)) ?x1419) ?x1246) ?x1249) 0.0))))))))
(assert
 (let ((?x1245 (* 2.0 l_0_2_10)))
 (let ((?x1460 (* ?x1245 l_0_2_7)))
 (let ((?x1461 (+ (+ (* (* (* (- 2.0) _a_3_) l_0_2_1) l_0_2_4) (* (/ 11.0 250.0) _a_4_)) ?x1460)))
 (= ?x1461 0.0)))))
(assert
 (= (* (/ 23.0 500.0) _a_4_) 0.0))
(assert
 (let ((?x1404 (* l_0_2_7 l_0_2_7)))
 (let ((?x1144 (* l_0_2_12 l_0_2_12)))
 (let ((?x1138 (* l_0_2_11 l_0_2_11)))
 (let ((?x1132 (* l_0_2_10 l_0_2_10)))
 (let ((?x1477 (* (/ 1.0 400.0) _a_4_)))
 (let ((?x1055 (* l_0_2_6 l_0_2_6)))
 (let ((?x1056 (+ (+ (* l_0_2_4 l_0_2_4) (* l_0_2_5 l_0_2_5)) ?x1055)))
 (let ((?x1478 (+ (- (* (* (- _a_3_) l_0_2_1) l_0_2_1) (* _a_4_ ?x1056)) ?x1477)))
 (= (+ (+ (+ (+ ?x1478 ?x1132) ?x1138) ?x1144) ?x1404) 0.0))))))))))
(assert
 (= (* (/ 1.0 100.0) _a_4_) 0.0))
(assert
 (= (* (/ 1.0 100.0) _a_4_) 0.0))
(assert
 (let ((?x1302 (* (* 2.0 l_0_2_7) l_0_2_8)))
 (let ((?x1510 (- (* (* (- _a_2_) l_0_2_1) l_0_2_1) (* (* (* 2.0 _a_4_) l_0_2_1) l_0_2_2))))
 (= (+ ?x1510 ?x1302) 0.0))))
(assert
 (= (+ (* (* (- _a_4_) l_0_2_1) l_0_2_1) (* l_0_2_7 l_0_2_7)) 0.0))
(assert
 (let ((?x1245 (* 2.0 l_0_2_10)))
 (let ((?x1460 (* ?x1245 l_0_2_7)))
 (= (+ (* (* (* (- 2.0) _a_4_) l_0_2_1) l_0_2_4) ?x1460) 0.0))))
(assert
 (>= l_0_2_1 0.0))
(assert
 (>= l_0_2_3 0.0))
(assert
 (>= l_0_2_6 0.0))
(assert
 (>= l_0_2_7 0.0))
(assert
 (>= l_0_2_9 0.0))
(assert
 (>= l_0_2_12 0.0))
(assert
 (>= l_0_2_13 0.0))
(assert
 (>= l_0_2_15 0.0))
(assert
 (>= l_0_2_18 0.0))
(check-sat)
(get-model)